c 
c U(n,d) graph
c graph gen seed     : 7394
c number of vertices : 25
c max number of edges: 500
c Euclidean distance : 0.400000
c data structure     : sparse
c
c           Graph Stats
c number of vertices  : 25
c nonisolated vertices: 25
c number of edges     : 116
c edge density        : 0.386667
c max degree          : 16
c avg degree          : 9.28
c min degree          : 2
p col 25 116
e 1 25
e 1 24
e 1 23
e 1 22
e 1 19
e 1 16
e 1 14
e 1 13
e 1 11
e 1 9
e 1 8
e 1 7
e 1 5
e 1 3
e 2 21
e 2 13
e 2 12
e 2 6
e 2 5
e 3 25
e 3 24
e 3 23
e 3 22
e 3 21
e 3 19
e 3 16
e 3 14
e 3 13
e 3 12
e 3 11
e 3 9
e 3 8
e 3 7
e 3 5
e 4 15
e 4 10
e 4 9
e 5 24
e 5 23
e 5 22
e 5 21
e 5 16
e 5 14
e 5 13
e 5 12
e 5 11
e 5 8
e 5 7
e 5 6
e 6 21
e 6 12
e 6 11
e 7 25
e 7 23
e 7 22
e 7 19
e 7 16
e 7 14
e 7 13
e 7 11
e 7 8
e 8 23
e 8 22
e 8 19
e 8 16
e 8 14
e 8 13
e 8 11
e 9 24
e 9 15
e 9 10
e 10 25
e 10 24
e 10 18
e 10 17
e 10 15
e 11 24
e 11 23
e 11 22
e 11 21
e 11 19
e 11 16
e 11 14
e 11 13
e 11 12
e 12 24
e 12 21
e 12 13
e 13 23
e 13 22
e 13 21
e 13 19
e 13 16
e 13 14
e 14 25
e 14 23
e 14 22
e 14 21
e 14 19
e 14 16
e 15 24
e 16 25
e 16 23
e 16 22
e 16 19
e 17 25
e 17 20
e 17 18
e 19 25
e 19 23
e 19 22
e 20 25
e 21 22
e 22 25
e 22 23
e 23 25
